data/solutions/planning/wellformed/moderate/weighting/wellformed_moderate_instance69_gurobi.sol
Elapsed time: 0.15
Nodes explored: 516
Nodes left: 261
Relative gap: 0.0
Upper bound: 32783.0
Lower bound: 32783
C[0]=1058.0
C[1]=1057.0
C[2]=1057.0
C[3]=1057.0
C[4]=1057.0
y[0]=1
y[1]=0
y[2]=0
y[3]=2
y[4]=3
y[5]=4
y[6]=0
y[7]=2
y[8]=2
y[9]=2
y[10]=1
y[11]=1
y[12]=4
y[13]=1
y[14]=1
y[15]=4
y[16]=1
y[17]=1
y[18]=3
y[19]=3
y[20]=2
y[21]=4
y[22]=3
y[23]=2
y[24]=2
y[25]=4
y[26]=2
y[27]=3
y[28]=4
y[29]=2
y[30]=1
y[31]=1
y[32]=0
y[33]=0
y[34]=2
y[35]=0
y[36]=0
y[37]=3
y[38]=0
y[39]=3
y[40]=3
y[41]=0
y[42]=0
y[43]=1
y[44]=1
y[45]=4
y[46]=2
y[47]=3
y[48]=1
y[49]=3
